p edge 30 111 10
v 5 5 11 23 24 26
v 3 13 15 29
v 4 1 2 12 21
v 4 4 9 14 16
v 1 25
v 1 17
v 3 6 7 18
v 4 8 19 22 30
v 3 3 27 28
v 2 10 20
e 1 4
e 1 13
e 1 22
e 1 23
e 1 25
e 1 26
e 2 9
e 2 14
e 2 16
e 2 20
e 2 21
e 2 22
e 2 26
e 3 4
e 3 7
e 3 14
e 3 20
e 3 22
e 3 23
e 3 25
e 4 5
e 4 8
e 4 10
e 4 15
e 4 17
e 4 28
e 4 30
e 5 10
e 5 13
e 5 15
e 5 17
e 5 18
e 5 20
e 5 22
e 6 12
e 6 14
e 6 16
e 6 18
e 7 19
e 7 20
e 7 21
e 7 22
e 7 24
e 7 25
e 8 22
e 8 27
e 8 30
e 9 18
e 9 23
e 9 24
e 9 28
e 9 30
e 10 17
e 10 20
e 10 28
e 10 30
e 11 15
e 11 17
e 11 19
e 11 21
e 11 26
e 11 28
e 11 30
e 12 14
e 12 17
e 12 18
e 12 20
e 12 22
e 12 28
e 13 23
e 13 26
e 14 15
e 14 18
e 14 19
e 14 20
e 14 26
e 14 27
e 14 29
e 15 16
e 15 19
e 15 26
e 15 27
e 15 28
e 16 18
e 16 21
e 16 23
e 16 24
e 16 26
e 16 27
e 17 18
e 17 22
e 17 26
e 17 28
e 18 21
e 18 25
e 19 21
e 19 29
e 20 22
e 20 23
e 20 27
e 20 28
e 21 24
e 21 26
e 22 23
e 22 24
e 23 24
e 23 28
e 23 30
e 24 26
e 24 27
e 29 30
